217
750
522	2
521	1
520	1
519	3
518	1
517	1
516	1
514	1
513	1
511	1
506	1
504	1
503	1
502	1
501	1
500	1
499	1
498	2
493	1
489	1
488	3
487	1
484	1
483	2
477	4
469	2
468	1
467	1
465	2
464	2
461	1
459	1
458	1
454	1
453	1
450	2
447	3
445	1
444	1
443	1
437	4
436	1
434	2
430	1
426	1
423	1
422	2
421	2
420	2
419	1
418	1
417	1
415	2
413	1
412	1
411	1
410	1
409	2
407	3
405	1
398	1
397	1
396	1
395	2
392	2
381	2
380	1
379	2
375	1
374	1
372	1
371	1
369	2
367	1
365	1
357	1
356	2
353	2
351	1
350	3
347	2
344	1
342	2
341	1
339	1
332	1
331	1
328	1
327	1
325	1
324	2
323	1
322	2
319	2
318	1
316	1
315	4
313	2
311	1
309	2
308	1
306	2
304	1
303	1
301	1
300	1
299	1
296	2
295	1
292	2
291	1
289	3
288	1
283	2
282	1
281	4
278	2
276	1
275	1
274	1
272	1
271	1
265	1
264	1
263	1
262	1
261	1
258	2
255	1
254	1
253	1
251	2
250	1
249	1
248	2
247	1
246	2
245	1
243	1
241	1
240	3
239	1
238	2
237	1
236	1
235	1
233	1
231	3
230	1
228	1
226	1
225	1
216	1
214	1
211	1
210	1
209	1
205	2
203	2
201	1
200	1
199	1
194	4
192	2
188	1
186	1
182	1
179	1
178	1
177	1
174	1
172	1
171	1
170	2
167	1
164	1
162	1
157	1
154	1
153	1
149	1
147	2
145	1
144	1
143	1
141	1
140	1
139	1
137	1
134	1
130	1
126	1
124	1
120	2
114	2
108	1
104	1
103	2
102	1
101	1
100	1
98	1
97	1
96	1
94	1
93	2
92	3
91	1
87	2
85	1
84	2
83	2
82	1
81	1
79	1
78	1
75	2
